db/data/1267419826663359623866178201606613482.z3.out
sat
-------------------
138.342580413
